Version identifier: 20.1.0.0 | 2020-11-10 | 9bedb6d68
Tried aggregator 2 times.
MIP Presolve eliminated 894 rows and 508 columns.
MIP Presolve modified 1760 coefficients.
Aggregator did 106 substitutions.
Reduced MIP has 706 rows, 593 columns, and 2237 nonzeros.
Reduced MIP has 158 binaries, 435 generals, 0 SOSs, and 0 indicators.
Presolve time = 0.01 sec. (3.68 ticks)
Found incumbent of value 1187.000000 after 0.02 sec. (5.76 ticks)
Probing fixed 20 vars, tightened 183 bounds.
Probing time = 0.00 sec. (0.61 ticks)
Tried aggregator 2 times.
Detecting symmetries...
MIP Presolve eliminated 300 rows and 42 columns.
MIP Presolve modified 70 coefficients.
Aggregator did 16 substitutions.
Reduced MIP has 390 rows, 535 columns, and 1269 nonzeros.
Reduced MIP has 194 binaries, 341 generals, 0 SOSs, and 0 indicators.
Presolve time = 0.00 sec. (1.89 ticks)
Probing time = 0.00 sec. (0.11 ticks)
Clique table members: 1.
MIP emphasis: balance optimality and feasibility.
MIP search method: dynamic search.
Parallel mode: deterministic, using up to 24 threads.
Root relaxation solution time = 0.00 sec. (1.21 ticks)

        Nodes                                         Cuts/
   Node  Left     Objective  IInf  Best Integer    Best Bound    ItCnt     Gap

*     0+    0                         1187.0000        0.0000           100.00%
*     0+    0                           42.0000        0.0000           100.00%
      0     0        0.0000    33       42.0000        0.0000      144  100.00%
      0     0        3.0000   119       42.0000      Cuts: 98      271   92.86%
*     0+    0                           22.0000        3.0000            86.36%
      0     0        3.6000   104       22.0000      Cuts: 66      321   83.64%
*     0+    0                           18.0000        3.6000            80.00%
      0     0        3.8148   146       18.0000      Cuts: 60      373   78.81%
      0     0        4.0238   165       18.0000      Cuts: 48      453   77.65%
      0     0        4.1429   169       18.0000      Cuts: 60      516   76.98%
      0     0        4.1429   184       18.0000      Cuts: 57      583   76.98%
      0     0        4.2500   154       18.0000      Cuts: 54      621   76.39%
      0     0        4.5000   122       18.0000      Cuts: 46      686   75.00%
      0     0        5.0000   177       18.0000      Cuts: 60      774   72.22%
      0     0        5.0476   213       18.0000      Cuts: 56      858   71.96%
      0     0        5.3333   161       18.0000      Cuts: 87      923   70.37%
      0     0        5.5000   137       18.0000      Cuts: 59      970   69.44%
      0     0        5.5000   119       18.0000      Cuts: 33     1007   69.44%
      0     0        5.5000   112       18.0000      Cuts: 26     1022   69.44%
*     0+    0                           17.0000        5.5000            67.65%
*     0+    0                           14.0000        5.5000            60.71%
      0     0        cutoff             14.0000       14.0000     1022    0.00%
Elapsed time = 0.21 sec. (87.42 ticks, tree = 0.01 MB, solutions = 6)

Implied bound cuts applied:  12
Mixed integer rounding cuts applied:  6
Zero-half cuts applied:  57
Gomory fractional cuts applied:  1

Root node processing (before b&c):
  Real time             =    0.21 sec. (87.51 ticks)
Parallel b&c, 24 threads:
  Real time             =    0.00 sec. (0.00 ticks)
  Sync time (average)   =    0.00 sec.
  Wait time (average)   =    0.00 sec.
                          ------------
Total (root+branch&cut) =    0.21 sec. (87.51 ticks)

Solution status = Optimal
Solution LB = 14
Solution UB = 14
Runtime = 0.216943 seconds
	Command being timed: "/home/min/git_repos/CS598MEBProject/CNT-ILP/build/cnt -s 2 ./output/k6_n20/simC_c1_k6_n20_u3_s3_del04.input-right.cnp"
	User time (seconds): 1.89
	System time (seconds): 0.03
	Percent of CPU this job got: 839%
	Elapsed (wall clock) time (h:mm:ss or m:ss): 0:00.22
	Average shared text size (kbytes): 0
	Average unshared data size (kbytes): 0
	Average stack size (kbytes): 0
	Average total size (kbytes): 0
	Maximum resident set size (kbytes): 57480
	Average resident set size (kbytes): 0
	Major (requiring I/O) page faults: 0
	Minor (reclaiming a frame) page faults: 11702
	Voluntary context switches: 2326
	Involuntary context switches: 242
	Swaps: 0
	File system inputs: 0
	File system outputs: 16
	Socket messages sent: 0
	Socket messages received: 0
	Signals delivered: 0
	Page size (bytes): 4096
	Exit status: 0
